NAME          MELTDOWN
ROWS
 G  N
 G  AM-N
 G  NI-N
 G  UR-N
 G  P
 G  K
 G  S
 G  ZN
 G  B
 G  WATR
 G  DEN
 E  HCAP
 E  HSOL
 E  HREA
 G  MINT
 G  MAXT
 G  32F
 G  77F
 G  32FK
 G  77FK
 E  WT
 N  COST
 N  PRICE
COLUMNS
*234567890123456789012345678901234567890123456789012345678901
    HOTWATER  WATR          1.000000   DEN           0.120048   
    HOTWATER  HCAP          1.000000   HREA          1.260000   
    HOTWATER  32F          -1.000000   77F          -1.000000   
    HOTWATER  32FK         -1.000000   77FK         -1.000000   
    HOTWATER  WT            1.000000   COST          0.250000   
    HOTWATER  PRICE         0.312500   SCALE      2000.000000   
    WATER     WATR          1.000000   DEN           0.119750   
    WATER     HCAP          1.000000   HSOL          0.400000   
    WATER     32F          -1.000000   77F          -1.000000   
    WATER     32FK         -1.000000   77FK         -1.000000   
    WATER     WT            1.000000   COST          0.100000   
    WATER     PRICE         0.100000   SCALE      2000.000000   
    I340000   N             0.340000   AM-N          0.170000   
    I340000   NI-N          0.170000   DEN           0.168538   
    I340000   HCAP          0.397000   HSOL          2.900000   
    I340000   32F           0.845018   77F           0.451379   
    I340000   32FK          6.352940   77FK          0.742160   
    I340000   WT            1.000000   COST        150.000000   
    I340000   PRICE       187.500000   SCALE      2000.000000   
    I460000   N             0.460000   UR-N          0.460000   
    I460000   DEN           0.156052   HCAP          0.320000   
    I460000   HSOL          2.160000   32F           1.421310   
    I460000   77F           0.838235   32FK          1.421310   
    I460000   77FK          0.838235   WT            1.000000   
    I460000   COST        180.000000   PRICE       200.000000   
    I460000   SCALE      2000.000000   
    I280000   N             0.280000   AM-N          0.070000   
    I280000   NI-N          0.070000   UR-N          0.140000   
    I280000   WATR          0.302000   DEN           0.093709   
    I280000   HCAP          0.554000   32F          -0.176887   
    I280000   77F          -0.297787   32FK          0.579186   
    I280000   77FK         -0.233809   WT            1.000000   
    I280000   COST         90.000000   PRICE       112.500000   
    I280000   SCALE      2000.000000   
    I320000   N             0.320000   AM-N          0.080000   
    I320000   NI-N          0.080000   UR-N          0.160000   
    I320000   WATR          0.200000   DEN           0.090869   
    I320000   HCAP          0.492000   32F          -0.107143   
    I320000   77F          -0.232982   32FK          0.632653   
    I320000   77FK         -0.126638   WT            1.000000   
    I320000   COST        102.000000   PRICE       127.500000   
    I320000   SCALE      2000.000000   
    I184600   N             0.180000   AM-N          0.180000   
    I184600   P             0.460000   DEN           0.119848   
    I184600   HCAP          0.330000   HSOL          0.800000   
    I184600   32F           1.777780   77F           1.439020   
    I184600   32FK          1.777780   77FK          1.439020   
    I184600   WT            1.000000   COST        200.000000   
    I184600   PRICE       240.000000   SCALE      2000.000000   
    I115300   N             0.110000   AM-N          0.110000   
    I115300   P             0.530000   DEN           0.066693   
    I115300   HCAP          0.300000   HSOL          0.800000   
    I115300   32F           4.617980   77F           2.472220   
    I115300   32FK          4.617980   77FK          2.472220   
    I115300   WT            1.000000   COST        250.000000   
    I115300   PRICE       275.000000   SCALE      2000.000000   
    I082400   N             0.080000   AM-N          0.080000   
    I082400   P             0.240000   WATR          0.516000   
    I082400   DEN           0.092345   HCAP          0.676000   
    I082400   32F          -0.058366   77F          -0.072797   
    I082400   32FK         -0.058366   77FK         -0.072797   
    I082400   WT            1.000000   COST        180.000000   
    I082400   PRICE       200.000000   SCALE      2000.000000   
    I103400   N             0.100000   AM-N          0.100000   
    I103400   P             0.340000   WATR          0.423000   
    I103400   DEN           0.085470   HCAP          0.578000   
    I103400   32F          -0.022034   77F          -0.057190   
    I103400   32FK         -0.022034   77FK         -0.057190   
    I103400   WT            1.000000   COST        190.000000   
    I103400   PRICE       237.500000   SCALE      2000.000000   
    I113700   N             0.110000   AM-N          0.110000   
    I113700   P             0.370000   WATR          0.400000   
    I113700   DEN           0.085749   HCAP          0.500000   
    I113700   32F          -0.059561   77F          -0.099099   
    I113700   32FK         -0.059561   77FK         -0.099099   
    I113700   WT            1.000000   COST        300.000000   
    I113700   PRICE       330.000000   SCALE      2000.000000   
    I000062   K             0.624000   DEN           0.060457   
    I000062   HCAP          0.162000   HSOL          2.120000   
    I000062   32F           3.424780   77F           2.690040   
    I000062   32FK          3.424780   77FK          2.690040   
    I000062   WT            1.000000   COST         90.000000   
    I000062   PRICE       112.500000   SCALE      2000.000000   
    I130044   N             0.137000   NI-N          0.137000   
    I130044   K             0.445000   DEN           0.120208   
    I130044   HCAP          0.285000   HSOL          3.080000   
    I130044   32F           7.547010   77F           2.571430   
    I130044   32FK          7.547010   77FK          2.571430   
    I130044   WT            1.000000   COST        277.000000   
    I130044   PRICE       300.000000   SCALE      2000.000000   
    I000050   K             0.510000   S             0.170000   
    I000050   DEN           0.101122   HCAP          0.190000   
    I000050   HSOL          1.306000   32F          13.705900   
    I000050   77F           8.708740   32FK         13.705900   
    I000050   77FK          8.708740   WT            1.000000   
    I000050   COST        140.000000   PRICE       175.000000   
    I000050   SCALE      2000.000000   
    I000025   K             0.250000   S             0.170000   
    I000025   WATR          0.510000   DEN           0.083500   
    I000025   HCAP          0.600000   32F          -0.014085   
    I000025   77F          -0.195402   32FK         -0.014085   
    I000025   77FK         -0.195402   WT            1.000000   
    I000025   COST        350.000000   PRICE       400.000000   
    I000025   SCALE      2000.000000   
    I210000   N             0.210000   AM-N          0.210000   
    I210000   S             0.240000   DEN           0.152867   
    I210000   HCAP          0.390000   HSOL          0.748000   
    I210000   32F           1.415460   77F           1.309470   
    I210000   32FK         14.384600   77FK          8.708740   
    I210000   WT            1.000000   COST        110.000000   
    I210000   PRICE       137.500000   SCALE      2000.000000   
    I120000   N             0.120000   AM-N          0.120000   
    I120000   S             0.260000   WATR          0.400000   
    I120000   DEN           0.089714   HCAP          0.440000   
    I120000   32F           0.005025   77F          -0.104478   
    I120000   32FK          0.005025   77FK         -0.104478   
    I120000   WT            1.000000   COST        135.000000   
    I120000   PRICE       168.750000   SCALE      2000.000000   
    I20S36Z   S             0.200000   ZN            0.360000   
    I20S36Z   DEN           0.097406   HCAP          0.193000   
    I20S36Z   HSOL          1.800000   32F           2.436430   
    I20S36Z   77F           1.732240   32FK         11.658200   
    I20S36Z   77FK          6.936510   WT            1.000000   
    I20S36Z   COST        400.000000   PRICE       480.000000   
    I20S36Z   SCALE      2000.000000   
    I100000   N             0.100000   AM-N          0.100000   
    I100000   S             0.050000   ZN            0.100000   
    I100000   WATR          0.630000   DEN           0.094690   
    I100000   HCAP          0.740000   77F          -0.119048   
    I100000   77FK         -0.119048   WT            1.000000   
    I100000   COST        190.000000   PRICE       237.500000   
    I100000   SCALE      2000.000000   
    NAB11     B             0.110000   DEN           0.069392   
    NAB11     HCAP          0.385000   HSOL          1.580000   
    NAB11     32F          40.666700   77F           7.333330   
    NAB11     32FK         40.666700   77FK          7.333330   
    NAB11     WT            1.000000   COST        600.000000   
    NAB11     PRICE       705.882000   SCALE      2000.000000   
    I20B000   B             0.205000   DEN           0.120048   
    I20B000   HCAP          0.700000   HSOL          1.000000   
    I20B000   32F           4.555560   77F           2.472220   
    I20B000   32FK          4.555560   77FK          2.472220   
    I20B000   WT            1.000000   COST        920.000000   
    I20B000   PRICE      1150.000000   SCALE      2000.000000   
    EVAP      WATR         -1.000000   DEN          -0.120048   
    EVAP      HCAP         -1.000000   HSOL         -0.400000   
    EVAP      32F           1.000000   77F           1.000000   
    EVAP      32FK          1.000000   77FK          1.000000   
    EVAP      WT           -1.000000   COST         25.000000   
    EVAP      PRICE        25.000000   SCALE      2000.000000   
    HEATCAP   HCAP         -1.000000   MINT          0.380000   
    HEATCAP   MAXT          0.800000   COST          0.000000   
    HEATCAP   PRICE         0.000000   SCALE         1.000000   
    HEATSOL   HSOL         -2.000000   MINT         -1.000000   
    HEATSOL   MAXT          1.000000   COST          0.000000   
    HEATSOL   PRICE         0.000000   SCALE         1.000000   
    HEATREA   HREA         -2.000000   MINT          1.000000   
    HEATREA   MAXT         -1.000000   COST          0.000000   
    HEATREA   PRICE         0.000000   SCALE         1.000000   
    PRODUCT   WT           -1.000000   COST          0.000000   
    PRODUCT   PRICE         0.000000   SCALE         1.000000   
*234567890123456789012345678901234567890123456789012345678901
RHS
RANGES
ENDATA
